5
8
20
1 1.3 1.55 1.75 2.1
44 36 34 43 21 19 16 37 39 33 29 12 28 29 27 16 36 47 17 14 29 7 45 9 6 7 47 21 5 7 17 21 40 30 31 48 38 20 35 49 13 38 12 35 7 24 13 41 12 38 13 25 23 35 29 16 32 41 43 16 35 40 41 35 42 27 12 43 42 44 14 39 19 35 6 37 33 49 40 8 45 21 47 26 10 12 37 42 38 49 42 6 15 43 34 30 47 23 28 28 39 12 35 16 40 21 15 12 46 30 29 5 24 30 8 17 45 42 18 45 26 45 40 44 10 37 44 8 26 23 32 26 15 47 23 18 27 28 33 31 16 30 23 32 40 35 41 40 38 6 42 36 12 15 31 14 41 9 20 40 